32	0

0	1	2
1	2	3	4
10	1	6
7	1	5
2	2	6	7
5	1	8
10	2	9	10
9	2	9	10
10	1	12
3	1	11
3	1	12
6	2	13	14
3	2	15	16
4	2	15	18
10	1	17
8	2	17	18
7	2	19	20
10	2	19	20
6	1	22
2	2	21	22
6	1	23
1	1	23
8	2	24	25
6	2	26	29
9	1	26
1	1	27
3	1	28
9	1	30
8	1	30
8	1	31
5	1	32
0	0
